<number of tasks>
50

<cycle time>
1000

<order strength>
0.195


<task times>
1 111
2 147
3 271
4 282
5 109
6 78
7 237
8 183
9 62
10 74
11 193
12 105
13 26
14 269
15 191
16 48
17 160
18 154
19 127
20 192
21 103
22 65
23 99
24 166
25 224
26 216
27 119
28 218
29 141
30 125
31 27
32 115
33 255
34 189
35 98
36 35
37 222
38 142
39 182
40 218
41 248
42 173
43 96
44 112
45 121
46 98
47 146
48 74
49 131
50 54

<precedence relations>
1,35
3,12
3,14
4,8
4,10
4,13
5,31
6,11
7,9
7,27
8,42
9,17
10,19
10,20
12,15
12,29
13,16
14,18
15,21
18,21
19,23
20,22
20,24
21,26
22,25
22,35
23,27
23,28
23,29
23,31
24,29
24,30
25,37
26,33
29,35
30,32
30,34
30,36
31,41
33,40
33,42
34,41
34,44
34,50
35,38
35,39
35,48
36,43
38,50
39,45
42,46
43,47
43,48
43,49

<end>
